(set-info :source |printed by MathSAT|)
(declare-fun x11 () Int)
(declare-fun call_readwrite.flby2 () Int)
(declare-fun call_readwrite.ite14 () Int)
(declare-fun call_readwrite.x1 () Int)
(declare-fun call_readwrite.ite31 () Int)
(declare-fun x10 () Int)
(declare-fun call_readwrite.flby4 () Int)
(declare-fun call_readwrite.ite22 () Int)
(declare-fun call_readwrite.ite37 () Int)
(declare-fun call_readwrite.ite () Int)
(declare-fun call_readwrite.ite11 () Int)
(declare-fun x1 () Int)
(declare-fun call_readwrite.ite63 () Int)
(declare-fun call_readwrite.ite19 () Int)
(declare-fun call_readwrite.ite18 () Int)
(declare-fun x12 () Int)
(declare-fun call_readwrite.ite3 () Int)
(declare-fun call_readwrite.flby11 () Int)
(declare-fun call_readwrite.ite7 () Int)
(declare-fun call_readwrite.flby7 () Int)
(declare-fun call_readwrite.ite47 () Int)
(declare-fun call_readwrite.flby5 () Int)
(declare-fun call_readwrite.x8 () Int)
(declare-fun call_readwrite.x12 () Int)
(declare-fun call_readwrite.ite53 () Int)
(declare-fun param_etat7 () Bool)
(declare-fun call_readwrite.ite16 () Int)
(declare-fun call_readwrite.ite52 () Int)
(declare-fun param_etat2 () Bool)
(declare-fun call_readwrite.ite36 () Int)
(declare-fun call_readwrite.ite42 () Int)
(declare-fun call_readwrite.ite41 () Int)
(declare-fun call_readwrite.ite49 () Int)
(declare-fun call_readwrite.x6 () Int)
(declare-fun call_readwrite.ite54 () Int)
(declare-fun call_readwrite.ite57 () Int)
(declare-fun call_readwrite.x10 () Int)
(declare-fun x5 () Int)
(declare-fun param_etat4 () Bool)
(declare-fun call_excludes9.excludes () Bool)
(declare-fun call_readwrite.ite13 () Int)
(declare-fun call_readwrite.flby3 () Int)
(declare-fun call_readwrite.ite38 () Int)
(declare-fun call_readwrite.x4 () Int)
(declare-fun call_readwrite.ite4 () Int)
(declare-fun call_readwrite.flby9 () Int)
(declare-fun _OK_ () Bool)
(declare-fun call_readwrite.ite34 () Int)
(declare-fun call_readwrite.ite62 () Int)
(declare-fun call_readwrite.ite35 () Int)
(declare-fun call_readwrite.x2 () Int)
(declare-fun call_readwrite.ite2 () Int)
(declare-fun call_readwrite.ite46 () Int)
(declare-fun param_etat9 () Bool)
(declare-fun call_readwrite.ite15 () Int)
(declare-fun call_readwrite.ite44 () Int)
(declare-fun call_readwrite.ite20 () Int)
(declare-fun call_readwrite.flby10 () Int)
(declare-fun call_readwrite.ite45 () Int)
(declare-fun call_readwrite.x0 () Int)
(declare-fun call_readwrite.ite30 () Int)
(declare-fun x0 () Int)
(declare-fun call_readwrite.ite50 () Int)
(declare-fun x2 () Int)
(declare-fun call_readwrite.flby12 () Int)
(declare-fun param_etat1 () Bool)
(declare-fun call_Sofar.flby () Bool)
(declare-fun call_readwrite.ite9 () Int)
(declare-fun call_readwrite.ite32 () Int)
(declare-fun call_readwrite.ite64 () Int)
(declare-fun call_readwrite.ite39 () Int)
(declare-fun call_readwrite.x9 () Int)
(declare-fun call_readwrite.ite10 () Int)
(declare-fun call_readwrite.ite43 () Int)
(declare-fun call_readwrite.ite28 () Int)
(declare-fun call_readwrite.flby6 () Int)
(declare-fun call_readwrite.ite21 () Int)
(declare-fun param_etat5 () Bool)
(declare-fun call_readwrite.ite40 () Int)
(declare-fun x4 () Int)
(declare-fun call_readwrite.ite5 () Int)
(declare-fun env () Bool)
(declare-fun call_readwrite.x7 () Int)
(declare-fun call_readwrite.ite6 () Int)
(declare-fun call_readwrite.ite26 () Int)
(declare-fun call_readwrite.x11 () Int)
(declare-fun x3 () Int)
(declare-fun call_readwrite.ite51 () Int)
(declare-fun call_readwrite.ite23 () Int)
(declare-fun x6 () Int)
(declare-fun x7 () Int)
(declare-fun call_readwrite.flby13 () Int)
(declare-fun call_readwrite.ite61 () Int)
(declare-fun call_readwrite.flby8 () Int)
(declare-fun param_etat6 () Bool)
(declare-fun call_readwrite.x5 () Int)
(declare-fun call_readwrite.flby () Int)
(declare-fun call_readwrite.ite56 () Int)
(declare-fun call_readwrite.ite24 () Int)
(declare-fun call_readwrite.ite27 () Int)
(declare-fun param_etat8 () Bool)
(declare-fun call_readwrite.ite33 () Int)
(declare-fun call_readwrite.ite48 () Int)
(declare-fun param_etat3 () Bool)
(declare-fun x8 () Int)
(declare-fun call_readwrite.ite60 () Int)
(declare-fun x9 () Int)
(declare-fun call_readwrite.ite8 () Int)
(declare-fun call_readwrite.ite59 () Int)
(declare-fun call_readwrite.ite29 () Int)
(declare-fun call_readwrite.ite55 () Int)
(declare-fun call_readwrite.ite25 () Int)
(declare-fun call_readwrite.ite58 () Int)
(declare-fun call_readwrite.x3 () Int)
(declare-fun call_readwrite.ite12 () Int)
(declare-fun call_Sofar.Sofar () Bool)
(declare-fun call_readwrite.ite17 () Int)
(define-fun .def_1841 () Bool (= call_Sofar.flby call_Sofar.Sofar))
(define-fun .def_1690 () Bool (not param_etat1))
(define-fun .def_1424 () Bool (not param_etat2))
(define-fun .def_1778 () Bool (and .def_1424 .def_1690))
(define-fun .def_1733 () Bool (not param_etat3))
(define-fun .def_1779 () Bool (and .def_1733 .def_1778))
(define-fun .def_1368 () Bool (not param_etat4))
(define-fun .def_1780 () Bool (and .def_1368 .def_1779))
(define-fun .def_1552 () Bool (not param_etat5))
(define-fun .def_1781 () Bool (and .def_1552 .def_1780))
(define-fun .def_1357 () Bool (not param_etat6))
(define-fun .def_1782 () Bool (and .def_1357 .def_1781))
(define-fun .def_1607 () Bool (not param_etat7))
(define-fun .def_1783 () Bool (and .def_1607 .def_1782))
(define-fun .def_1380 () Bool (not param_etat8))
(define-fun .def_1784 () Bool (and .def_1380 .def_1783))
(define-fun .def_1402 () Bool (not param_etat9))
(define-fun .def_1829 () Bool (and .def_1402 .def_1784))
(define-fun .def_1821 () Bool (and .def_1424 param_etat1))
(define-fun .def_1822 () Bool (and .def_1733 .def_1821))
(define-fun .def_1823 () Bool (and .def_1368 .def_1822))
(define-fun .def_1824 () Bool (and .def_1552 .def_1823))
(define-fun .def_1825 () Bool (and .def_1357 .def_1824))
(define-fun .def_1826 () Bool (and .def_1607 .def_1825))
(define-fun .def_1827 () Bool (and .def_1380 .def_1826))
(define-fun .def_1828 () Bool (and .def_1402 .def_1827))
(define-fun .def_1830 () Bool (or .def_1828 .def_1829))
(define-fun .def_1813 () Bool (and param_etat2 .def_1690))
(define-fun .def_1814 () Bool (and .def_1733 .def_1813))
(define-fun .def_1815 () Bool (and .def_1368 .def_1814))
(define-fun .def_1816 () Bool (and .def_1552 .def_1815))
(define-fun .def_1817 () Bool (and .def_1357 .def_1816))
(define-fun .def_1818 () Bool (and .def_1607 .def_1817))
(define-fun .def_1819 () Bool (and .def_1380 .def_1818))
(define-fun .def_1820 () Bool (and .def_1402 .def_1819))
(define-fun .def_1831 () Bool (or .def_1820 .def_1830))
(define-fun .def_1806 () Bool (and param_etat3 .def_1778))
(define-fun .def_1807 () Bool (and .def_1368 .def_1806))
(define-fun .def_1808 () Bool (and .def_1552 .def_1807))
(define-fun .def_1809 () Bool (and .def_1357 .def_1808))
(define-fun .def_1810 () Bool (and .def_1607 .def_1809))
(define-fun .def_1811 () Bool (and .def_1380 .def_1810))
(define-fun .def_1812 () Bool (and .def_1402 .def_1811))
(define-fun .def_1832 () Bool (or .def_1812 .def_1831))
(define-fun .def_1800 () Bool (and param_etat4 .def_1779))
(define-fun .def_1801 () Bool (and .def_1552 .def_1800))
(define-fun .def_1802 () Bool (and .def_1357 .def_1801))
(define-fun .def_1803 () Bool (and .def_1607 .def_1802))
(define-fun .def_1804 () Bool (and .def_1380 .def_1803))
(define-fun .def_1805 () Bool (and .def_1402 .def_1804))
(define-fun .def_1833 () Bool (or .def_1805 .def_1832))
(define-fun .def_1795 () Bool (and param_etat5 .def_1780))
(define-fun .def_1796 () Bool (and .def_1357 .def_1795))
(define-fun .def_1797 () Bool (and .def_1607 .def_1796))
(define-fun .def_1798 () Bool (and .def_1380 .def_1797))
(define-fun .def_1799 () Bool (and .def_1402 .def_1798))
(define-fun .def_1834 () Bool (or .def_1799 .def_1833))
(define-fun .def_1791 () Bool (and param_etat6 .def_1781))
(define-fun .def_1792 () Bool (and .def_1607 .def_1791))
(define-fun .def_1793 () Bool (and .def_1380 .def_1792))
(define-fun .def_1794 () Bool (and .def_1402 .def_1793))
(define-fun .def_1835 () Bool (or .def_1794 .def_1834))
(define-fun .def_1788 () Bool (and param_etat7 .def_1782))
(define-fun .def_1789 () Bool (and .def_1380 .def_1788))
(define-fun .def_1790 () Bool (and .def_1402 .def_1789))
(define-fun .def_1836 () Bool (or .def_1790 .def_1835))
(define-fun .def_1786 () Bool (and param_etat8 .def_1783))
(define-fun .def_1787 () Bool (and .def_1402 .def_1786))
(define-fun .def_1837 () Bool (or .def_1787 .def_1836))
(define-fun .def_1785 () Bool (and param_etat9 .def_1784))
(define-fun .def_1838 () Bool (or .def_1785 .def_1837))
(define-fun .def_1839 () Bool (= call_excludes9.excludes .def_1838))
(define-fun .def_1776 () Bool (= call_readwrite.flby13 call_readwrite.x12))
(define-fun .def_1774 () Bool (= call_readwrite.flby12 call_readwrite.x11))
(define-fun .def_1772 () Bool (= call_readwrite.flby11 call_readwrite.x10))
(define-fun .def_1770 () Bool (= call_readwrite.flby10 call_readwrite.x9))
(define-fun .def_1768 () Bool (= call_readwrite.flby9 call_readwrite.x8))
(define-fun .def_1766 () Bool (= call_readwrite.flby8 call_readwrite.x7))
(define-fun .def_1764 () Bool (= call_readwrite.flby7 call_readwrite.x6))
(define-fun .def_1762 () Bool (= call_readwrite.flby6 call_readwrite.x5))
(define-fun .def_1760 () Bool (= call_readwrite.flby5 call_readwrite.x4))
(define-fun .def_1758 () Bool (= call_readwrite.flby4 call_readwrite.x3))
(define-fun .def_1756 () Bool (= call_readwrite.flby3 call_readwrite.x2))
(define-fun .def_1754 () Bool (= call_readwrite.flby2 call_readwrite.x1))
(define-fun .def_1752 () Bool (= call_readwrite.flby call_readwrite.x0))
(define-fun .def_1748 () Bool (= call_readwrite.ite15 call_readwrite.ite16))
(define-fun .def_1749 () Bool (or param_etat3 .def_1748))
(define-fun .def_1745 () Bool (= call_readwrite.ite13 call_readwrite.ite16))
(define-fun .def_1746 () Bool (or .def_1733 .def_1745))
(define-fun .def_1740 () Bool (= call_readwrite.ite9 call_readwrite.ite10))
(define-fun .def_1741 () Bool (or param_etat3 .def_1740))
(define-fun .def_1737 () Bool (= call_readwrite.ite10 call_readwrite.ite7))
(define-fun .def_1738 () Bool (or .def_1733 .def_1737))
(define-fun .def_1732 () Bool (= call_readwrite.ite60 call_readwrite.ite57))
(define-fun .def_1734 () Bool (or .def_1732 .def_1733))
(define-fun .def_1728 () Bool (= call_readwrite.ite59 call_readwrite.ite60))
(define-fun .def_1730 () Bool (or .def_1728 param_etat3))
(define-fun .def_1735 () Bool (and .def_1730 .def_1734))
(define-fun .def_1739 () Bool (and .def_1735 .def_1738))
(define-fun .def_1742 () Bool (and .def_1739 .def_1741))
(define-fun .def_1747 () Bool (and .def_1742 .def_1746))
(define-fun .def_1750 () Bool (and .def_1747 .def_1749))
(define-fun .def_1723 () Bool (= call_readwrite.ite27 call_readwrite.ite28))
(define-fun .def_1724 () Bool (or param_etat2 .def_1723))
(define-fun .def_1720 () Bool (= call_readwrite.ite21 call_readwrite.ite28))
(define-fun .def_1721 () Bool (or .def_1424 .def_1720))
(define-fun .def_1715 () Bool (= call_readwrite.ite19 call_readwrite.ite20))
(define-fun .def_1716 () Bool (or param_etat2 .def_1715))
(define-fun .def_1712 () Bool (= call_readwrite.ite17 call_readwrite.ite20))
(define-fun .def_1713 () Bool (or .def_1424 .def_1712))
(define-fun .def_1707 () Bool (= call_readwrite.ite11 call_readwrite.ite6))
(define-fun .def_1708 () Bool (or .def_1424 .def_1707))
(define-fun .def_1704 () Bool (= call_readwrite.ite11 call_readwrite.ite10))
(define-fun .def_1705 () Bool (or param_etat2 .def_1704))
(define-fun .def_1709 () Bool (and .def_1705 .def_1708))
(define-fun .def_1714 () Bool (and .def_1709 .def_1713))
(define-fun .def_1717 () Bool (and .def_1714 .def_1716))
(define-fun .def_1722 () Bool (and .def_1717 .def_1721))
(define-fun .def_1725 () Bool (and .def_1722 .def_1724))
(define-fun .def_1699 () Bool (= call_readwrite.ite12 call_readwrite.ite11))
(define-fun .def_1700 () Bool (or param_etat1 .def_1699))
(define-fun .def_1695 () Bool (= call_readwrite.ite5 call_readwrite.ite12))
(define-fun .def_1696 () Bool (or .def_1690 .def_1695))
(define-fun .def_1689 () Bool (= call_readwrite.ite4 call_readwrite.ite))
(define-fun .def_1691 () Bool (or .def_1689 .def_1690))
(define-fun .def_1685 () Bool (= call_readwrite.ite3 call_readwrite.ite4))
(define-fun .def_1687 () Bool (or .def_1685 param_etat1))
(define-fun .def_1692 () Bool (and .def_1687 .def_1691))
(define-fun .def_1697 () Bool (and .def_1692 .def_1696))
(define-fun .def_1701 () Bool (and .def_1697 .def_1700))
(define-fun .def_1682 () Bool (= env call_Sofar.Sofar))
(define-fun .def_1678 () Bool (= x12 call_readwrite.x12))
(define-fun .def_1675 () Bool (= x11 call_readwrite.x11))
(define-fun .def_1672 () Bool (= x10 call_readwrite.x10))
(define-fun .def_1667 () Bool (= call_readwrite.ite56 call_readwrite.ite53))
(define-fun .def_1668 () Bool (or .def_1380 .def_1667))
(define-fun .def_1664 () Bool (= call_readwrite.ite55 call_readwrite.ite56))
(define-fun .def_1665 () Bool (or param_etat8 .def_1664))
(define-fun .def_1669 () Bool (and .def_1665 .def_1668))
(define-fun .def_1661 () Bool (= x9 call_readwrite.x9))
(define-fun .def_1658 () Bool (= x8 call_readwrite.x8))
(define-fun .def_1655 () Bool (= x7 call_readwrite.x7))
(define-fun .def_1652 () Bool (= x6 call_readwrite.x6))
(define-fun .def_1649 () Bool (= x5 call_readwrite.x5))
(define-fun .def_1646 () Bool (= x4 call_readwrite.x4))
(define-fun .def_1643 () Bool (= x3 call_readwrite.x3))
(define-fun .def_1640 () Bool (= x2 call_readwrite.x2))
(define-fun .def_1637 () Bool (= x1 call_readwrite.x1))
(define-fun .def_1634 () Bool (= x0 call_readwrite.x0))
(define-fun .def_1629 () Bool (= call_readwrite.ite41 call_readwrite.ite42))
(define-fun .def_1630 () Bool (or param_etat7 .def_1629))
(define-fun .def_1626 () Bool (= call_readwrite.ite42 call_readwrite.ite39))
(define-fun .def_1627 () Bool (or .def_1607 .def_1626))
(define-fun .def_1622 () Bool (= call_readwrite.ite25 call_readwrite.ite26))
(define-fun .def_1623 () Bool (or param_etat7 .def_1622))
(define-fun .def_1619 () Bool (= call_readwrite.ite26 call_readwrite.ite23))
(define-fun .def_1620 () Bool (or .def_1607 .def_1619))
(define-fun .def_1615 () Bool (= call_readwrite.ite63 call_readwrite.ite64))
(define-fun .def_1616 () Bool (or param_etat7 .def_1615))
(define-fun .def_1612 () Bool (= call_readwrite.ite61 call_readwrite.ite64))
(define-fun .def_1613 () Bool (or .def_1607 .def_1612))
(define-fun .def_1606 () Bool (= call_readwrite.ite48 call_readwrite.ite45))
(define-fun .def_1608 () Bool (or .def_1606 .def_1607))
(define-fun .def_1602 () Bool (= call_readwrite.ite47 call_readwrite.ite48))
(define-fun .def_1604 () Bool (or .def_1602 param_etat7))
(define-fun .def_1609 () Bool (and .def_1604 .def_1608))
(define-fun .def_1614 () Bool (and .def_1609 .def_1613))
(define-fun .def_1617 () Bool (and .def_1614 .def_1616))
(define-fun .def_1621 () Bool (and .def_1617 .def_1620))
(define-fun .def_1624 () Bool (and .def_1621 .def_1623))
(define-fun .def_1628 () Bool (and .def_1624 .def_1627))
(define-fun .def_1631 () Bool (and .def_1628 .def_1630))
(define-fun .def_1598 () Bool (<= 0 x0))
(define-fun .def_1599 () Bool (= _OK_ .def_1598))
(define-fun .def_1593 () Bool (= call_readwrite.ite43 call_readwrite.ite42))
(define-fun .def_1594 () Bool (or param_etat6 .def_1593))
(define-fun .def_1589 () Bool (= call_readwrite.ite43 call_readwrite.ite38))
(define-fun .def_1590 () Bool (or .def_1357 .def_1589))
(define-fun .def_1585 () Bool (= call_readwrite.ite27 call_readwrite.ite22))
(define-fun .def_1586 () Bool (or .def_1357 .def_1585))
(define-fun .def_1582 () Bool (= call_readwrite.ite26 call_readwrite.ite27))
(define-fun .def_1583 () Bool (or param_etat6 .def_1582))
(define-fun .def_1587 () Bool (and .def_1583 .def_1586))
(define-fun .def_1591 () Bool (and .def_1587 .def_1590))
(define-fun .def_1595 () Bool (and .def_1591 .def_1594))
(define-fun .def_1576 () Bool (= call_readwrite.ite31 call_readwrite.ite32))
(define-fun .def_1577 () Bool (or param_etat4 .def_1576))
(define-fun .def_1573 () Bool (= call_readwrite.ite29 call_readwrite.ite32))
(define-fun .def_1574 () Bool (or .def_1368 .def_1573))
(define-fun .def_1568 () Bool (= call_readwrite.ite52 call_readwrite.ite49))
(define-fun .def_1569 () Bool (or .def_1368 .def_1568))
(define-fun .def_1565 () Bool (= call_readwrite.ite51 call_readwrite.ite52))
(define-fun .def_1566 () Bool (or param_etat4 .def_1565))
(define-fun .def_1570 () Bool (and .def_1566 .def_1569))
(define-fun .def_1575 () Bool (and .def_1570 .def_1574))
(define-fun .def_1578 () Bool (and .def_1575 .def_1577))
(define-fun .def_1561 () Bool (= call_readwrite.ite44 call_readwrite.ite43))
(define-fun .def_1562 () Bool (or param_etat5 .def_1561))
(define-fun .def_1557 () Bool (= call_readwrite.ite37 call_readwrite.ite44))
(define-fun .def_1558 () Bool (or .def_1552 .def_1557))
(define-fun .def_1551 () Bool (= call_readwrite.ite36 call_readwrite.ite33))
(define-fun .def_1553 () Bool (or .def_1551 .def_1552))
(define-fun .def_1547 () Bool (= call_readwrite.ite35 call_readwrite.ite36))
(define-fun .def_1549 () Bool (or .def_1547 param_etat5))
(define-fun .def_1554 () Bool (and .def_1549 .def_1553))
(define-fun .def_1559 () Bool (and .def_1554 .def_1558))
(define-fun .def_1563 () Bool (and .def_1559 .def_1562))
(define-fun .def_1579 () Bool (and .def_1563 .def_1578))
(define-fun .def_1596 () Bool (and .def_1579 .def_1595))
(define-fun .def_1600 () Bool (and .def_1596 .def_1599))
(define-fun .def_1632 () Bool (and .def_1600 .def_1631))
(define-fun .def_1635 () Bool (and .def_1632 .def_1634))
(define-fun .def_1638 () Bool (and .def_1635 .def_1637))
(define-fun .def_1641 () Bool (and .def_1638 .def_1640))
(define-fun .def_1644 () Bool (and .def_1641 .def_1643))
(define-fun .def_1647 () Bool (and .def_1644 .def_1646))
(define-fun .def_1650 () Bool (and .def_1647 .def_1649))
(define-fun .def_1653 () Bool (and .def_1650 .def_1652))
(define-fun .def_1656 () Bool (and .def_1653 .def_1655))
(define-fun .def_1659 () Bool (and .def_1656 .def_1658))
(define-fun .def_1662 () Bool (and .def_1659 .def_1661))
(define-fun .def_1670 () Bool (and .def_1662 .def_1669))
(define-fun .def_1673 () Bool (and .def_1670 .def_1672))
(define-fun .def_1676 () Bool (and .def_1673 .def_1675))
(define-fun .def_1679 () Bool (and .def_1676 .def_1678))
(define-fun .def_1683 () Bool (and .def_1679 .def_1682))
(define-fun .def_1702 () Bool (and .def_1683 .def_1701))
(define-fun .def_1726 () Bool (and .def_1702 .def_1725))
(define-fun .def_1751 () Bool (and .def_1726 .def_1750))
(define-fun .def_1753 () Bool (and .def_1751 .def_1752))
(define-fun .def_1755 () Bool (and .def_1753 .def_1754))
(define-fun .def_1757 () Bool (and .def_1755 .def_1756))
(define-fun .def_1759 () Bool (and .def_1757 .def_1758))
(define-fun .def_1761 () Bool (and .def_1759 .def_1760))
(define-fun .def_1763 () Bool (and .def_1761 .def_1762))
(define-fun .def_1765 () Bool (and .def_1763 .def_1764))
(define-fun .def_1767 () Bool (and .def_1765 .def_1766))
(define-fun .def_1769 () Bool (and .def_1767 .def_1768))
(define-fun .def_1771 () Bool (and .def_1769 .def_1770))
(define-fun .def_1773 () Bool (and .def_1771 .def_1772))
(define-fun .def_1775 () Bool (and .def_1773 .def_1774))
(define-fun .def_1777 () Bool (and .def_1775 .def_1776))
(define-fun .def_1840 () Bool (and .def_1777 .def_1839))
(define-fun .def_1842 () Bool (and .def_1840 .def_1841))
(define-fun .def_1540 () Bool (<= 32767 x12))
(define-fun .def_1541 () Bool (not .def_1540))
(define-fun .def_1536 () Bool (<= 32767 x11))
(define-fun .def_1537 () Bool (not .def_1536))
(define-fun .def_1532 () Bool (<= 32767 x10))
(define-fun .def_1533 () Bool (not .def_1532))
(define-fun .def_1528 () Bool (<= 32767 x9))
(define-fun .def_1529 () Bool (not .def_1528))
(define-fun .def_1524 () Bool (<= 32767 x8))
(define-fun .def_1525 () Bool (not .def_1524))
(define-fun .def_1521 () Bool (<= 32767 x7))
(define-fun .def_1522 () Bool (not .def_1521))
(define-fun .def_1518 () Bool (<= 32767 x6))
(define-fun .def_1519 () Bool (not .def_1518))
(define-fun .def_1515 () Bool (<= 32767 x5))
(define-fun .def_1516 () Bool (not .def_1515))
(define-fun .def_1512 () Bool (<= 32767 x4))
(define-fun .def_1513 () Bool (not .def_1512))
(define-fun .def_1509 () Bool (<= 32767 x3))
(define-fun .def_1510 () Bool (not .def_1509))
(define-fun .def_1506 () Bool (<= 32767 x1))
(define-fun .def_1507 () Bool (not .def_1506))
(define-fun .def_1503 () Bool (<= 32767 x0))
(define-fun .def_1504 () Bool (not .def_1503))
(define-fun .def_1500 () Bool (<= x8 (- 32768)))
(define-fun .def_1501 () Bool (not .def_1500))
(define-fun .def_1496 () Bool (<= x7 (- 32768)))
(define-fun .def_1497 () Bool (not .def_1496))
(define-fun .def_1492 () Bool (<= x6 (- 32768)))
(define-fun .def_1493 () Bool (not .def_1492))
(define-fun .def_1488 () Bool (<= x5 (- 32768)))
(define-fun .def_1489 () Bool (not .def_1488))
(define-fun .def_1484 () Bool (<= x4 (- 32768)))
(define-fun .def_1485 () Bool (not .def_1484))
(define-fun .def_1480 () Bool (<= x3 (- 32768)))
(define-fun .def_1481 () Bool (not .def_1480))
(define-fun .def_1476 () Bool (<= x2 (- 32768)))
(define-fun .def_1477 () Bool (not .def_1476))
(define-fun .def_1472 () Bool (<= x1 (- 32768)))
(define-fun .def_1473 () Bool (not .def_1472))
(define-fun .def_1467 () Bool (<= x0 (- 32768)))
(define-fun .def_1468 () Bool (not .def_1467))
(define-fun .def_1470 () Bool (and .def_1468 call_excludes9.excludes))
(define-fun .def_1474 () Bool (and .def_1470 .def_1473))
(define-fun .def_1478 () Bool (and .def_1474 .def_1477))
(define-fun .def_1482 () Bool (and .def_1478 .def_1481))
(define-fun .def_1486 () Bool (and .def_1482 .def_1485))
(define-fun .def_1490 () Bool (and .def_1486 .def_1489))
(define-fun .def_1494 () Bool (and .def_1490 .def_1493))
(define-fun .def_1498 () Bool (and .def_1494 .def_1497))
(define-fun .def_1502 () Bool (and .def_1498 .def_1501))
(define-fun .def_1505 () Bool (and .def_1502 .def_1504))
(define-fun .def_1508 () Bool (and .def_1505 .def_1507))
(define-fun .def_1511 () Bool (and .def_1508 .def_1510))
(define-fun .def_1514 () Bool (and .def_1511 .def_1513))
(define-fun .def_1517 () Bool (and .def_1514 .def_1516))
(define-fun .def_1520 () Bool (and .def_1517 .def_1519))
(define-fun .def_1523 () Bool (and .def_1520 .def_1522))
(define-fun .def_1526 () Bool (and .def_1523 .def_1525))
(define-fun .def_1530 () Bool (and .def_1526 .def_1529))
(define-fun .def_1534 () Bool (and .def_1530 .def_1533))
(define-fun .def_1538 () Bool (and .def_1534 .def_1537))
(define-fun .def_1542 () Bool (and .def_1538 .def_1541))
(define-fun .def_1544 () Bool (= .def_1542 call_Sofar.flby))
(define-fun .def_1464 () Bool (= call_readwrite.flby8 0))
(define-fun .def_1461 () Bool (= call_readwrite.flby7 0))
(define-fun .def_1458 () Bool (= call_readwrite.flby6 0))
(define-fun .def_1455 () Bool (= call_readwrite.flby5 0))
(define-fun .def_1452 () Bool (= call_readwrite.flby4 0))
(define-fun .def_1449 () Bool (= call_readwrite.flby3 1))
(define-fun .def_1446 () Bool (= call_readwrite.flby2 0))
(define-fun .def_1443 () Bool (= call_readwrite.flby 0))
(define-fun .def_1440 () Bool (= call_readwrite.flby13 1))
(define-fun .def_1437 () Bool (= call_readwrite.flby12 1))
(define-fun .def_1434 () Bool (= call_readwrite.flby11 0))
(define-fun .def_1431 () Bool (= call_readwrite.flby10 0))
(define-fun .def_1428 () Bool (= call_readwrite.flby9 1))
(define-fun .def_1422 () Bool (= call_readwrite.ite2 call_readwrite.ite3))
(define-fun .def_1425 () Bool (or .def_1422 .def_1424))
(define-fun .def_1416 () Bool (= call_readwrite.ite62 call_readwrite.ite63))
(define-fun .def_1417 () Bool (or .def_1402 .def_1416))
(define-fun .def_1411 () Bool (= call_readwrite.ite58 call_readwrite.ite59))
(define-fun .def_1412 () Bool (or .def_1402 .def_1411))
(define-fun .def_1406 () Bool (= call_readwrite.ite50 call_readwrite.ite51))
(define-fun .def_1407 () Bool (or .def_1402 .def_1406))
(define-fun .def_1400 () Bool (= call_readwrite.ite54 call_readwrite.ite55))
(define-fun .def_1403 () Bool (or .def_1400 .def_1402))
(define-fun .def_1408 () Bool (and .def_1403 .def_1407))
(define-fun .def_1413 () Bool (and .def_1408 .def_1412))
(define-fun .def_1418 () Bool (and .def_1413 .def_1417))
(define-fun .def_1394 () Bool (= call_readwrite.ite40 call_readwrite.ite41))
(define-fun .def_1395 () Bool (or .def_1380 .def_1394))
(define-fun .def_1389 () Bool (= call_readwrite.ite30 call_readwrite.ite31))
(define-fun .def_1390 () Bool (or .def_1380 .def_1389))
(define-fun .def_1384 () Bool (= call_readwrite.ite46 call_readwrite.ite47))
(define-fun .def_1385 () Bool (or .def_1380 .def_1384))
(define-fun .def_1378 () Bool (= call_readwrite.ite24 call_readwrite.ite25))
(define-fun .def_1381 () Bool (or .def_1378 .def_1380))
(define-fun .def_1386 () Bool (and .def_1381 .def_1385))
(define-fun .def_1391 () Bool (and .def_1386 .def_1390))
(define-fun .def_1396 () Bool (and .def_1391 .def_1395))
(define-fun .def_1372 () Bool (= call_readwrite.ite8 call_readwrite.ite9))
(define-fun .def_1373 () Bool (or .def_1368 .def_1372))
(define-fun .def_1366 () Bool (= call_readwrite.ite14 call_readwrite.ite15))
(define-fun .def_1369 () Bool (or .def_1366 .def_1368))
(define-fun .def_1374 () Bool (and .def_1369 .def_1373))
(define-fun .def_1361 () Bool (= call_readwrite.ite18 call_readwrite.ite19))
(define-fun .def_1362 () Bool (or .def_1357 .def_1361))
(define-fun .def_1355 () Bool (= call_readwrite.ite34 call_readwrite.ite35))
(define-fun .def_1358 () Bool (or .def_1355 .def_1357))
(define-fun .def_1363 () Bool (and .def_1358 .def_1362))
(define-fun .def_1375 () Bool (and .def_1363 .def_1374))
(define-fun .def_1397 () Bool (and .def_1375 .def_1396))
(define-fun .def_1419 () Bool (and .def_1397 .def_1418))
(define-fun .def_1426 () Bool (and .def_1419 .def_1425))
(define-fun .def_1429 () Bool (and .def_1426 .def_1428))
(define-fun .def_1432 () Bool (and .def_1429 .def_1431))
(define-fun .def_1435 () Bool (and .def_1432 .def_1434))
(define-fun .def_1438 () Bool (and .def_1435 .def_1437))
(define-fun .def_1441 () Bool (and .def_1438 .def_1440))
(define-fun .def_1444 () Bool (and .def_1441 .def_1443))
(define-fun .def_1447 () Bool (and .def_1444 .def_1446))
(define-fun .def_1450 () Bool (and .def_1447 .def_1449))
(define-fun .def_1453 () Bool (and .def_1450 .def_1452))
(define-fun .def_1456 () Bool (and .def_1453 .def_1455))
(define-fun .def_1459 () Bool (and .def_1456 .def_1458))
(define-fun .def_1462 () Bool (and .def_1459 .def_1461))
(define-fun .def_1465 () Bool (and .def_1462 .def_1464))
(define-fun .def_1545 () Bool (and .def_1465 .def_1544))
(define-fun .def_1843 () Bool (and .def_1545 .def_1842))
(assert .def_1843)
